# Solution for model HELLO
# Objective value = 8560415
XXXXXXX0 0
XXXXXXX1 0
XXXXXXX2 0
XXXXXXX3 0
XXXXXXX4 1
XXXXXXX5 1
XXXXXXX6 1
XXXXXXX7 1
XXXXXXX8 0
XXXXXXX9 1
XXXXXX10 1
XXXXXX11 1
XXXXXX12 0
XXXXXX13 1
XXXXXX14 1
XXXXXX15 0
XXXXXX16 1
XXXXXX17 1
XXXXXX18 1
XXXXXX19 0
XXXXXX20 0
XXXXXX21 1
XXXXXX22 1
XXXXXX23 0
XXXXXX24 1
XXXXXX25 0
XXXXXX26 1
XXXXXX27 0
XXXXXX28 0
XXXXXX29 0
XXXXXX30 1
XXXXXX31 0
XXXXXX32 1
XXXXXX33 0
XXXXXX34 1
XXXXXX35 0
XXXXXX36 0
XXXXXX37 0
XXXXXX38 0
XXXXXX39 1
XXXXXX40 1
XXXXXX41 0
XXXXXX42 1
XXXXXX43 1
XXXXXX44 1
XXXXXX45 0
XXXXXX46 1
XXXXXX47 0
XXXXXX48 1
XXXXXX49 1
XXXXXX50 0
XXXXXX51 0
XXXXXX52 0
XXXXXX53 1
XXXXXX54 0
XXXXXX55 0
XXXXXX56 1
XXXXXX57 0
XXXXXX58 1
XXXXXX59 1
XXXXXX60 0
XXXXXX61 1
XXXXXX62 1
XXXXXX63 1
XXXXXX64 1
XXXXXX65 0
XXXXXX66 1
XXXXXX67 1
XXXXXX68 1
XXXXXX69 1
XXXXXX70 1
XXXXXX71 0
XXXXXX72 1
XXXXXX73 1
XXXXXX74 1
XXXXXX75 1
XXXXXX76 1
XXXXXX77 1
XXXXXX78 1
XXXXXX79 1
XXXXXX80 1
XXXXXX81 1
XXXXXX82 1
XXXXXX83 1
XXXXXX84 0
XXXXXX85 1
XXXXXX86 1
XXXXXX87 1
XXXXXX88 0
XXXXXX89 0
XXXXXX90 0
XXXXXX91 1
XXXXXX92 1
XXXXXX93 1
XXXXXX94 0
XXXXXX95 1
XXXXXX96 0
XXXXXX97 1
XXXXXX98 1
XXXXXX99 1
XXXXX100 1
XXXXX101 0
XXXXX102 0
XXXXX103 1
XXXXX104 0
XXXXX105 1
XXXXX106 1
XXXXX107 1
XXXXX108 0
XXXXX109 1
XXXXX110 0
XXXXX111 0
XXXXX112 1
XXXXX113 1
XXXXX114 1
XXXXX115 1
XXXXX116 0
XXXXX117 1
XXXXX118 0
XXXXX119 1
XXXXX120 0
XXXXX121 1
XXXXX122 0
XXXXX123 0
XXXXX124 1
XXXXX125 0
XXXXX126 0
XXXXX127 1
XXXXX128 0
XXXXX129 0
XXXXX130 1
XXXXX131 0
XXXXX132 1
XXXXX133 0
XXXXX134 1
XXXXX135 1
XXXXX136 1
XXXXX137 0
XXXXX138 0
XXXXX139 1
XXXXX140 1
XXXXX141 0
XXXXX142 1
XXXXX143 0
XXXXX144 1
XXXXX145 0
XXXXX146 1
XXXXX147 1
XXXXX148 1
XXXXX149 0
XXXXX150 0
XXXXX151 0
XXXXX152 1
XXXXX153 0
XXXXX154 1
XXXXX155 0
XXXXX156 0
XXXXX157 0
XXXXX158 0
XXXXX159 1
XXXXX160 1
XXXXX161 1
XXXXX162 1
XXXXX163 1
XXXXX164 1
XXXXX165 0
XXXXX166 1
XXXXX167 0
XXXXX168 0
XXXXX169 0
XXXXX170 0
XXXXX171 0
XXXXX172 0
XXXXX173 0
XXXXX174 0
XXXXX175 0
XXXXX176 0
XXXXX177 1
XXXXX178 1
XXXXX179 1
XXXXX180 0
XXXXX181 0
XXXXX182 1
XXXXX183 1
XXXXX184 1
XXXXX185 0
XXXXX186 0
XXXXX187 1
XXXXX188 0
XXXXX189 0
XXXXX190 1
XXXXX191 1
XXXXX192 1
XXXXX193 1
XXXXX194 1
XXXXX195 0
XXXXX196 1
XXXXX197 0
XXXXX198 0
XXXXX199 0
XXXXX200 0
XXXXX201 0
XXXXX202 1
XXXXX203 0
XXXXX204 0
XXXXX205 1
XXXXX206 0
XXXXX207 1
XXXXX208 1
XXXXX209 1
XXXXX210 1
XXXXX211 0
XXXXX212 1
XXXXX213 1
XXXXX214 1
XXXXX215 1
XXXXX216 1
XXXXX217 1
XXXXX218 1
XXXXX219 1
XXXXX220 1
XXXXX221 1
XXXXX222 1
XXXXX223 0
XXXXX224 1
XXXXX225 0
XXXXX226 0
XXXXX227 1
XXXXX228 0
XXXXX229 0
XXXXX230 1
XXXXX231 1
XXXXX232 1
XXXXX233 1
XXXXX234 1
XXXXX235 0
XXXXX236 0
XXXXX237 0
XXXXX238 1
XXXXX239 0
XXXXX240 1
XXXXX241 0
XXXXX242 1
XXXXX243 0
XXXXX244 1
XXXXX245 0
XXXXX246 1
XXXXX247 0
XXXXX248 1
XXXXX249 1
XXXXX250 0
XXXXX251 1
XXXXX252 1
XXXXX253 1
XXXXX254 1
XXXXX255 0
XXXXX256 0
XXXXX257 0
XXXXX258 0
XXXXX259 1
XXXXX260 1
XXXXX261 1
XXXXX262 0
XXXXX263 0
XXXXX264 1
XXXXX265 0
XXXXX266 1
XXXXX267 0
XXXXX268 0
XXXXX269 1
XXXXX270 0
XXXXX271 1
XXXXX272 0
XXXXX273 1
XXXXX274 0
XXXXX275 1
XXXXX276 1
XXXXX277 1
XXXXX278 1
XXXXX279 1
XXXXX280 1
XXXXX281 0
XXXXX282 0
XXXXX283 0
XXXXX284 1
XXXXX285 1
XXXXX286 1
XXXXX287 1
XXXXX288 0
XXXXX289 1
XXXXX290 1
XXXXX291 1
XXXXX292 1
XXXXX293 1
XXXXX294 1
XXXXX295 1
XXXXX296 1
XXXXX297 0
XXXXX298 0
XXXXX299 1
XXXXX300 1
XXXXX301 1
XXXXX302 0
XXXXX303 0
XXXXX304 0
XXXXX305 0
XXXXX306 1
XXXXX307 0
XXXXX308 1
XXXXX309 0
XXXXX310 1
XXXXX311 1
XXXXX312 1
XXXXX313 1
XXXXX314 1
XXXXX315 0
XXXXX316 0
XXXXX317 1
XXXXX318 0
XXXXX319 1
XXXXX320 0
XXXXX321 1
XXXXX322 0
XXXXX323 1
XXXXX324 0
XXXXX325 1
XXXXX326 0
XXXXX327 0
XXXXX328 1
XXXXX329 0
XXXXX330 1
XXXXX331 0
XXXXX332 1
XXXXX333 1
XXXXX334 1
XXXXX335 0
XXXXX336 0
XXXXX337 1
XXXXX338 0
XXXXX339 0
XXXXX340 1
XXXXX341 0
XXXXX342 1
XXXXX343 1
XXXXX344 0
XXXXX345 0
XXXXX346 0
XXXXX347 1
XXXXX348 0
XXXXX349 0
XXXXX350 1
XXXXX351 0
XXXXX352 0
XXXXX353 0
XXXXX354 1
XXXXX355 1
XXXXX356 1
XXXXX357 1
XXXXX358 0
XXXXX359 1
XXXXX360 1
XXXXX361 1
XXXXX362 0
XXXXX363 1
XXXXX364 0
XXXXX365 0
XXXXX366 1
XXXXX367 1
XXXXX368 1
XXXXX369 1
XXXXX370 1
XXXXX371 1
XXXXX372 1
XXXXX373 0
XXXXX374 0
XXXXX375 0
XXXXX376 1
XXXXX377 1
XXXXX378 0
XXXXX379 1
XXXXX380 1
XXXXX381 0
XXXXX382 0
XXXXX383 1
XXXXX384 0
XXXXX385 1
XXXXX386 1
XXXXX387 1
XXXXX388 1
XXXXX389 0
XXXXX390 0
XXXXX391 1
XXXXX392 1
XXXXX393 0
XXXXX394 0
XXXXX395 0
XXXXX396 1
XXXXX397 1
XXXXX398 1
XXXXX399 0
XXXXX400 1
XXXXX401 0
XXXXX402 0
XXXXX403 1
XXXXX404 1
XXXXX405 0
XXXXX406 1
XXXXX407 0
XXXXX408 0
XXXXX409 0
XXXXX410 0
XXXXX411 1
XXXXX412 1
XXXXX413 1
XXXXX414 1
XXXXX415 1
XXXXX416 1
XXXXX417 1
XXXXX418 1
XXXXX419 0
XXXXX420 0
XXXXX421 1
XXXXX422 1
XXXXX423 0
XXXXX424 0
XXXXX425 1
XXXXX426 0
XXXXX427 0
XXXXX428 1
XXXXX429 0
XXXXX430 1
XXXXX431 1
XXXXX432 1
XXXXX433 1
XXXXX434 1
XXXXX435 0
XXXXX436 1
XXXXX437 1
XXXXX438 1
XXXXX439 1
XXXXX440 1
XXXXX441 1
XXXXX442 0
XXXXX443 1
XXXXX444 1
XXXXX445 1
XXXXX446 1
XXXXX447 1
XXXXX448 1
XXXXX449 0
XXXXX450 0
XXXXX451 1
XXXXX452 1
XXXXX453 0
XXXXX454 0
XXXXX455 0
XXXXX456 0
XXXXX457 0
XXXXX458 0
XXXXX459 1
XXXXX460 1
XXXXX461 1
XXXXX462 0
XXXXX463 0
XXXXX464 0
XXXXX465 1
XXXXX466 0
XXXXX467 1
XXXXX468 0
XXXXX469 1
XXXXX470 0
XXXXX471 0
XXXXX472 0
XXXXX473 0
XXXXX474 0
XXXXX475 0
XXXXX476 0
XXXXX477 1
XXXXX478 1
XXXXX479 0
XXXXX480 1
XXXXX481 0
XXXXX482 1
XXXXX483 1
XXXXX484 1
XXXXX485 0
XXXXX486 1
XXXXX487 0
XXXXX488 1
XXXXX489 1
XXXXX490 1
XXXXX491 1
XXXXX492 1
XXXXX493 1
XXXXX494 0
XXXXX495 0
XXXXX496 1
XXXXX497 1
XXXXX498 1
XXXXX499 1
XXXXX500 0
XXXXX501 0
XXXXX502 1
XXXXX503 0
XXXXX504 1
XXXXX505 0
XXXXX506 1
XXXXX507 1
XXXXX508 0
XXXXX509 1
XXXXX510 1
XXXXX511 0
XXXXX512 1
XXXXX513 1
XXXXX514 1
XXXXX515 0
XXXXX516 0
XXXXX517 1
XXXXX518 0
XXXXX519 0
XXXXX520 1
XXXXX521 1
XXXXX522 0
XXXXX523 1
XXXXX524 1
XXXXX525 0
XXXXX526 1
XXXXX527 1
XXXXX528 1
XXXXX529 1
XXXXX530 0
XXXXX531 0
XXXXX532 1
XXXXX533 1
XXXXX534 0
XXXXX535 0
XXXXX536 1
XXXXX537 1
XXXXX538 1
XXXXX539 1
XXXXX540 0
XXXXX541 1
XXXXX542 1
XXXXX543 1
XXXXX544 1
XXXXX545 0
XXXXX546 1
XXXXX547 1
XXXXX548 1
XXXXX549 0
XXXXX550 0
XXXXX551 0
XXXXX552 0
XXXXX553 0
XXXXX554 1
XXXXX555 1
XXXXX556 0
XXXXX557 1
XXXXX558 0
XXXXX559 1
XXXXX560 0
XXXXX561 1
XXXXX562 1
XXXXX563 1
XXXXX564 1
XXXXX565 0
XXXXX566 1
XXXXX567 0
XXXXX568 0
XXXXX569 0
XXXXX570 1
XXXXX571 1
XXXXX572 1
XXXXX573 0
XXXXX574 1
XXXXX575 1
XXXXX576 1
XXXXX577 1
XXXXX578 0
XXXXX579 1
XXXXX580 0
XXXXX581 0
XXXXX582 1
XXXXX583 1
XXXXX584 0
XXXXX585 0
XXXXX586 0
XXXXX587 1
XXXXX588 0
XXXXX589 1
XXXXX590 1
XXXXX591 1
XXXXX592 1
XXXXX593 0
XXXXX594 0
XXXXX595 0
XXXXX596 0
XXXXX597 1
XXXXX598 0
XXXXX599 1
XXXXX600 1
XXXXX601 1
XXXXX602 0
XXXXX603 1
XXXXX604 0
XXXXX605 1
XXXXX606 1
XXXXX607 1
XXXXX608 0
XXXXX609 1
XXXXX610 0
XXXXX611 0
XXXXX612 0
XXXXX613 1
XXXXX614 1
XXXXX615 1
XXXXX616 0
XXXXX617 0
XXXXX618 0
XXXXX619 0
XXXXX620 0
XXXXX621 0
XXXXX622 1
XXXXX623 1
XXXXX624 0
XXXXX625 0
XXXXX626 1
XXXXX627 0
XXXXX628 0
XXXXX629 1
XXXXX630 0
XXXXX631 0
XXXXX632 1
XXXXX633 0
XXXXX634 0
XXXXX635 0
XXXXX636 1
XXXXX637 1
XXXXX638 1
XXXXX639 0
XXXXX640 1
XXXXX641 1
XXXXX642 1
XXXXX643 1
XXXXX644 1
XXXXX645 1
XXXXX646 0
XXXXX647 0
XXXXX648 1
XXXXX649 1
XXXXX650 0
XXXXX651 0
XXXXX652 1
XXXXX653 1
XXXXX654 0
XXXXX655 1
XXXXX656 1
XXXXX657 1
XXXXX658 1
XXXXX659 0
XXXXX660 0
XXXXX661 0
XXXXX662 1
XXXXX663 1
XXXXX664 1
XXXXX665 0
XXXXX666 1
XXXXX667 1
XXXXX668 1
XXXXX669 1
XXXXX670 0
XXXXX671 1
XXXXX672 1
XXXXX673 0
XXXXX674 0
XXXXX675 0
XXXXX676 1
XXXXX677 1
XXXXX678 1
XXXXX679 0
XXXXX680 0
XXXXX681 0
XXXXX682 1
XXXXX683 1
XXXXX684 1
XXXXX685 0
XXXXX686 0
XXXXX687 0
XXXXX688 0
XXXXX689 1
XXXXX690 1
XXXXX691 1
XXXXX692 1
XXXXX693 1
XXXXX694 0
XXXXX695 0
XXXXX696 0
XXXXX697 1
XXXXX698 1
XXXXX699 0
XXXXX700 0
XXXXX701 0
XXXXX702 1
XXXXX703 1
XXXXX704 1
XXXXX705 0
XXXXX706 0
XXXXX707 1
XXXXX708 1
XXXXX709 1
XXXXX710 0
XXXXX711 1
XXXXX712 1
XXXXX713 1
XXXXX714 1
XXXXX715 0
XXXXX716 0
XXXXX717 1
XXXXX718 1
XXXXX719 0
XXXXX720 0
XXXXX721 1
XXXXX722 1
XXXXX723 1
XXXXX724 1
XXXXX725 0
XXXXX726 1
XXXXX727 1
XXXXX728 0
XXXXX729 0
XXXXX730 0
XXXXX731 1
XXXXX732 1
XXXXX733 0
XXXXX734 1
XXXXX735 0
XXXXX736 1
XXXXX737 0
XXXXX738 1
XXXXX739 1
XXXXX740 1
XXXXX741 0
XXXXX742 1
XXXXX743 1
XXXXX744 0
XXXXX745 0
XXXXX746 0
XXXXX747 1
XXXXX748 0
XXXXX749 0
XXXXX750 1
XXXXX751 0
XXXXX752 1
XXXXX753 0
XXXXX754 1
XXXXX755 1
XXXXX756 1
XXXXX757 1
XXXXX758 0
XXXXX759 1
XXXXX760 0
XXXXX761 0
XXXXX762 1
XXXXX763 1
XXXXX764 0
XXXXX765 1
XXXXX766 1
XXXXX767 0
XXXXX768 1
XXXXX769 0
XXXXX770 0
XXXXX771 0
XXXXX772 1
XXXXX773 0
XXXXX774 0
XXXXX775 1
XXXXX776 1
XXXXX777 0
XXXXX778 0
XXXXX779 0
XXXXX780 1
XXXXX781 0
XXXXX782 0
XXXXX783 1
XXXXX784 0
XXXXX785 1
XXXXX786 0
XXXXX787 1
XXXXX788 0
XXXXX789 1
XXXXX790 0
XXXXX791 0
XXXXX792 1
XXXXX793 1
XXXXX794 0
XXXXX795 0
XXXXX796 1
XXXXX797 1
XXXXX798 0
XXXXX799 0
XXXXX800 1
XXXXX801 0
XXXXX802 1
XXXXX803 0
XXXXX804 1
XXXXX805 1
XXXXX806 0
XXXXX807 0
XXXXX808 0
XXXXX809 1
XXXXX810 1
XXXXX811 0
XXXXX812 1
XXXXX813 1
XXXXX814 1
XXXXX815 1
XXXXX816 1
XXXXX817 0
XXXXX818 1
XXXXX819 1
XXXXX820 1
XXXXX821 0
XXXXX822 1
XXXXX823 1
XXXXX824 0
XXXXX825 1
XXXXX826 1
XXXXX827 0
XXXXX828 0
XXXXX829 1
XXXXX830 0
XXXXX831 0
XXXXX832 1
XXXXX833 1
XXXXX834 1
XXXXX835 1
XXXXX836 0
XXXXX837 0
XXXXX838 1
XXXXX839 1
XXXXX840 0
XXXXX841 1
XXXXX842 1
XXXXX843 0
XXXXX844 1
XXXXX845 1
XXXXX846 1
XXXXX847 1
XXXXX848 0
XXXXX849 0
XXXXX850 0
XXXXX851 0
XXXXX852 0
XXXXX853 1
XXXXX854 1
XXXXX855 1
XXXXX856 0
XXXXX857 1
XXXXX858 1
XXXXX859 1
XXXXX860 0
XXXXX861 0
XXXXX862 1
XXXXX863 0
XXXXX864 1
XXXXX865 1
XXXXX866 0
XXXXX867 1
XXXXX868 1
XXXXX869 1
XXXXX870 0
XXXXX871 1
XXXXX872 1
XXXXX873 1
XXXXX874 0
XXXXX875 1
XXXXX876 1
XXXXX877 1
XXXXX878 1
XXXXX879 1
XXXXX880 1
XXXXX881 0
XXXXX882 0
XXXXX883 1
XXXXX884 1
XXXXX885 0
XXXXX886 1
XXXXX887 0
XXXXX888 0
XXXXX889 1
XXXXX890 0
XXXXX891 0
XXXXX892 0
XXXXX893 0
XXXXX894 1
XXXXX895 0
XXXXX896 1
XXXXX897 0
XXXXX898 1
XXXXX899 0
XXXXX900 0
XXXXX901 1
XXXXX902 0
XXXXX903 1
XXXXX904 0
XXXXX905 0
XXXXX906 1
XXXXX907 1
XXXXX908 0
XXXXX909 1
XXXXX910 0
XXXXX911 1
XXXXX912 0
XXXXX913 0
XXXXX914 0
XXXXX915 0
XXXXX916 0
XXXXX917 0
XXXXX918 0
XXXXX919 1
XXXXX920 0
XXXXX921 1
XXXXX922 1
XXXXX923 1
XXXXX924 0
XXXXX925 1
XXXXX926 1
XXXXX927 0
XXXXX928 1
XXXXX929 1
XXXXX930 1
XXXXX931 0
XXXXX932 1
XXXXX933 1
XXXXX934 1
XXXXX935 1
XXXXX936 0
XXXXX937 1
XXXXX938 1
XXXXX939 0
XXXXX940 1
XXXXX941 0
XXXXX942 1
XXXXX943 0
XXXXX944 0
XXXXX945 1
XXXXX946 1
XXXXX947 0
XXXXX948 0
XXXXX949 1
XXXXX950 1
XXXXX951 0
XXXXX952 1
XXXXX953 1
XXXXX954 0
XXXXX955 1
XXXXX956 1
XXXXX957 0
XXXXX958 1
XXXXX959 0
XXXXX960 0
XXXXX961 1
XXXXX962 0
XXXXX963 1
XXXXX964 0
XXXXX965 1
XXXXX966 1
XXXXX967 1
XXXXX968 1
XXXXX969 1
XXXXX970 1
XXXXX971 1
XXXXX972 1
XXXXX973 0
XXXXX974 1
XXXXX975 0
XXXXX976 0
XXXXX977 1
XXXXX978 1
XXXXX979 1
XXXXX980 1
XXXXX981 1
XXXXX982 0
XXXXX983 1
XXXXX984 0
XXXXX985 0
XXXXX986 0
XXXXX987 0
XXXXX988 1
XXXXX989 1
XXXXX990 1
XXXXX991 1
XXXXX992 0
XXXXX993 1
XXXXX994 0
XXXXX995 1
XXXXX996 1
XXXXX997 0
XXXXX998 1
XXXXX999 1
XXXX1000 1
XXXX1001 1
XXXX1002 0
XXXX1003 1
XXXX1004 0
XXXX1005 1
XXXX1006 1
XXXX1007 0
XXXX1008 0
XXXX1009 0
XXXX1010 1
XXXX1011 0
XXXX1012 1
XXXX1013 0
XXXX1014 0
XXXX1015 1
XXXX1016 0
XXXX1017 0
XXXX1018 0
XXXX1019 1
XXXX1020 1
XXXX1021 0
XXXX1022 1
XXXX1023 1
XXXX1024 0
XXXX1025 0
XXXX1026 0
XXXX1027 0
XXXX1028 0
XXXX1029 0
XXXX1030 1
XXXX1031 1
XXXX1032 1
XXXX1033 0
XXXX1034 1
XXXX1035 0
XXXX1036 1
XXXX1037 1
XXXX1038 1
XXXX1039 1
XXXX1040 1
XXXX1041 1
XXXX1042 1
XXXX1043 1
XXXX1044 0
XXXX1045 0
XXXX1046 1
XXXX1047 1
XXXX1048 0
XXXX1049 0
XXXX1050 1
XXXX1051 1
XXXX1052 0
XXXX1053 0
XXXX1054 1
XXXX1055 0
XXXX1056 0
XXXX1057 0
XXXX1058 1
XXXX1059 1
XXXX1060 1
XXXX1061 0
XXXX1062 0
XXXX1063 1
XXXX1064 1
XXXX1065 0
XXXX1066 0
XXXX1067 0
XXXX1068 0
XXXX1069 1
XXXX1070 0
XXXX1071 0
XXXX1072 1
XXXX1073 1
XXXX1074 1
XXXX1075 1
XXXX1076 0
XXXX1077 0
XXXX1078 0
XXXX1079 1
XXXX1080 0
XXXX1081 1
XXXX1082 0
XXXX1083 1
XXXX1084 0
XXXX1085 1
XXXX1086 0
XXXX1087 0
XXXX1088 1
XXXX1089 1
XXXX1090 0
XXXX1091 0
XXXX1092 1
XXXX1093 0
XXXX1094 0
XXXX1095 0
XXXX1096 1
XXXX1097 1
XXXX1098 1
XXXX1099 1
XXXX1100 1
XXXX1101 0
XXXX1102 1
XXXX1103 1
XXXX1104 1
XXXX1105 1
XXXX1106 1
XXXX1107 1
XXXX1108 0
XXXX1109 0
XXXX1110 1
XXXX1111 1
XXXX1112 1
XXXX1113 1
XXXX1114 1
XXXX1115 1
XXXX1116 1
XXXX1117 1
XXXX1118 1
XXXX1119 0
XXXX1120 1
XXXX1121 1
XXXX1122 1
XXXX1123 1
XXXX1124 0
XXXX1125 1
XXXX1126 0
XXXX1127 1
XXXX1128 1
XXXX1129 0
XXXX1130 1
XXXX1131 0
XXXX1132 1
XXXX1133 1
XXXX1134 0
XXXX1135 0
XXXX1136 0
XXXX1137 1
XXXX1138 1
XXXX1139 1
XXXX1140 1
XXXX1141 1
XXXX1142 1
XXXX1143 1
XXXX1144 1
XXXX1145 0
XXXX1146 1
XXXX1147 1
XXXX1148 1
XXXX1149 0
XXXX1150 0
XXXX1151 1
XXXX1152 0
XXXX1153 0
XXXX1154 1
XXXX1155 1
XXXX1156 1
XXXX1157 1
XXXX1158 1
XXXX1159 1
XXXX1160 0
XXXX1161 1
XXXX1162 1
XXXX1163 1
XXXX1164 1
XXXX1165 1
XXXX1166 1
XXXX1167 1
XXXX1168 0
XXXX1169 0
XXXX1170 0
XXXX1171 1
XXXX1172 1
XXXX1173 0
XXXX1174 0
XXXX1175 0
XXXX1176 0
XXXX1177 0
XXXX1178 1
XXXX1179 1
XXXX1180 0
XXXX1181 1
XXXX1182 0
XXXX1183 0
XXXX1184 1
XXXX1185 0
XXXX1186 0
XXXX1187 1
XXXX1188 0
XXXX1189 1
XXXX1190 1
XXXX1191 0
XXXX1192 0
XXXX1193 1
XXXX1194 0
XXXX1195 1
XXXX1196 1
XXXX1197 1
XXXX1198 1
XXXX1199 1
XXXX1200 1
XXXX1201 0
XXXX1202 1
XXXX1203 0
XXXX1204 1
XXXX1205 1
XXXX1206 0
XXXX1207 1
XXXX1208 1
XXXX1209 1
XXXX1210 0
XXXX1211 1
XXXX1212 1
XXXX1213 0
XXXX1214 0
XXXX1215 1
XXXX1216 1
XXXX1217 0
XXXX1218 0
XXXX1219 1
XXXX1220 0
XXXX1221 1
XXXX1222 0
XXXX1223 0
XXXX1224 0
XXXX1225 0
XXXX1226 0
XXXX1227 1
XXXX1228 0
XXXX1229 0
XXXX1230 1
XXXX1231 1
XXXX1232 0
XXXX1233 0
XXXX1234 0
XXXX1235 1
XXXX1236 0
XXXX1237 1
XXXX1238 0
XXXX1239 1
XXXX1240 0
XXXX1241 1
XXXX1242 0
XXXX1243 0
XXXX1244 0
XXXX1245 0
XXXX1246 0
XXXX1247 0
XXXX1248 1
XXXX1249 0
XXXX1250 1
XXXX1251 1
XXXX1252 0
XXXX1253 1
XXXX1254 0
XXXX1255 0
XXXX1256 1
XXXX1257 0
XXXX1258 1
XXXX1259 0
XXXX1260 1
XXXX1261 0
XXXX1262 0
XXXX1263 0
XXXX1264 0
XXXX1265 1
XXXX1266 1
XXXX1267 0
XXXX1268 1
XXXX1269 1
XXXX1270 0
XXXX1271 0
XXXX1272 0
XXXX1273 0
XXXX1274 1
XXXX1275 0
XXXX1276 0
XXXX1277 1
XXXX1278 0
XXXX1279 1
XXXX1280 1
XXXX1281 1
XXXX1282 0
XXXX1283 0
XXXX1284 1
XXXX1285 0
XXXX1286 0
XXXX1287 0
XXXX1288 0
XXXX1289 0
XXXX1290 1
XXXX1291 1
XXXX1292 0
XXXX1293 0
XXXX1294 1
XXXX1295 1
XXXX1296 0
XXXX1297 1
XXXX1298 0
XXXX1299 1
XXXX1300 0
XXXX1301 1
XXXX1302 0
XXXX1303 0
XXXX1304 1
XXXX1305 0
XXXX1306 1
XXXX1307 0
XXXX1308 1
XXXX1309 0
XXXX1310 1
XXXX1311 1
XXXX1312 0
XXXX1313 1
XXXX1314 0
XXXX1315 1
XXXX1316 1
XXXX1317 1
XXXX1318 1
XXXX1319 1
XXXX1320 1
XXXX1321 1
XXXX1322 0
XXXX1323 0
XXXX1324 0
XXXX1325 1
XXXX1326 1
XXXX1327 1
XXXX1328 1
XXXX1329 1
XXXX1330 0
XXXX1331 1
XXXX1332 1
XXXX1333 0
XXXX1334 0
XXXX1335 0
XXXX1336 1
XXXX1337 0
XXXX1338 1
XXXX1339 0
XXXX1340 1
XXXX1341 0
XXXX1342 1
XXXX1343 0
XXXX1344 1
XXXX1345 1
XXXX1346 0
XXXX1347 0
XXXX1348 0
XXXX1349 1
XXXX1350 1
XXXX1351 1
XXXX1352 0
XXXX1353 1
XXXX1354 1
XXXX1355 0
XXXX1356 1
XXXX1357 0
XXXX1358 0
XXXX1359 1
XXXX1360 1
XXXX1361 0
XXXX1362 0
XXXX1363 1
XXXX1364 0
XXXX1365 0
XXXX1366 1
XXXX1367 0
XXXX1368 1
XXXX1369 1
XXXX1370 0
XXXX1371 0
XXXX1372 0
XXXX1373 1
XXXX1374 0
XXXX1375 1
XXXX1376 0
XXXX1377 0
XXXX1378 0
XXXX1379 1
XXXX1380 0
XXXX1381 1
XXXX1382 0
XXXX1383 0
XXXX1384 1
XXXX1385 1
XXXX1386 1
XXXX1387 0
XXXX1388 0
XXXX1389 1
XXXX1390 1
XXXX1391 1
XXXX1392 1
XXXX1393 0
XXXX1394 1
XXXX1395 1
XXXX1396 1
XXXX1397 1
XXXX1398 0
XXXX1399 1
XXXX1400 1
XXXX1401 1
XXXX1402 1
XXXX1403 1
XXXX1404 1
XXXX1405 1
XXXX1406 0
XXXX1407 1
XXXX1408 1
XXXX1409 1
XXXX1410 0
XXXX1411 1
XXXX1412 1
XXXX1413 0
XXXX1414 1
XXXX1415 1
XXXX1416 1
XXXX1417 1
XXXX1418 1
XXXX1419 0
XXXX1420 1
XXXX1421 1
XXXX1422 1
XXXX1423 1
XXXX1424 1
XXXX1425 1
XXXX1426 0
XXXX1427 1
XXXX1428 1
XXXX1429 0
XXXX1430 1
XXXX1431 1
XXXX1432 1
XXXX1433 1
XXXX1434 1
XXXX1435 1
XXXX1436 0
XXXX1437 1
XXXX1438 0
XXXX1439 0
XXXX1440 1
XXXX1441 1
XXXX1442 1
XXXX1443 1
XXXX1444 1
XXXX1445 1
XXXX1446 1
XXXX1447 1
XXXX1448 1
XXXX1449 0
XXXX1450 1
XXXX1451 0
XXXX1452 1
XXXX1453 0
XXXX1454 1
XXXX1455 1
XXXX1456 0
XXXX1457 1
XXXX1458 0
XXXX1459 1
XXXX1460 1
XXXX1461 1
XXXX1462 0
XXXX1463 0
XXXX1464 1
XXXX1465 1
XXXX1466 0
XXXX1467 0
XXXX1468 0
XXXX1469 1
XXXX1470 0
XXXX1471 0
XXXX1472 1
XXXX1473 1
XXXX1474 1
XXXX1475 1
XXXX1476 1
XXXX1477 1
XXXX1478 1
XXXX1479 1
XXXX1480 0
XXXX1481 1
XXXX1482 1
XXXX1483 0
XXXX1484 0
XXXX1485 1
XXXX1486 1
XXXX1487 0
XXXX1488 0
XXXX1489 1
XXXX1490 1
XXXX1491 1
XXXX1492 1
XXXX1493 0
XXXX1494 0
XXXX1495 0
XXXX1496 0
XXXX1497 1
XXXX1498 1
XXXX1499 0
XXXX1500 0
XXXX1501 0
XXXX1502 1
XXXX1503 1
XXXX1504 1
XXXX1505 1
XXXX1506 1
XXXX1507 0
XXXX1508 0
XXXX1509 1
XXXX1510 0
XXXX1511 0
XXXX1512 0
XXXX1513 1
XXXX1514 1
XXXX1515 1
XXXX1516 1
XXXX1517 1
XXXX1518 1
XXXX1519 1
XXXX1520 0
XXXX1521 0
XXXX1522 1
XXXX1523 0
XXXX1524 1
XXXX1525 0
XXXX1526 0
XXXX1527 1
XXXX1528 1
XXXX1529 1
XXXX1530 1
XXXX1531 0
XXXX1532 1
XXXX1533 0
XXXX1534 0
XXXX1535 1
XXXX1536 0
XXXX1537 1
XXXX1538 1
XXXX1539 0
XXXX1540 0
XXXX1541 0
XXXX1542 0
XXXX1543 1
XXXX1544 1
XXXX1545 0
XXXX1546 1
XXXX1547 0
XXXX1548 1
XXXX1549 1
XXXX1550 0
XXXX1551 1
XXXX1552 1
XXXX1553 1
XXXX1554 1
XXXX1555 1
XXXX1556 0
XXXX1557 1
XXXX1558 0
XXXX1559 1
XXXX1560 1
XXXX1561 1
XXXX1562 0
XXXX1563 1
XXXX1564 0
XXXX1565 1
XXXX1566 1
XXXX1567 0
XXXX1568 0
XXXX1569 0
XXXX1570 0
XXXX1571 1
XXXX1572 1
XXXX1573 1
XXXX1574 0
XXXX1575 0
XXXX1576 1
XXXX1577 0
XXXX1578 0
XXXX1579 0
XXXX1580 1
XXXX1581 0
XXXX1582 1
XXXX1583 0
XXXX1584 0
XXXX1585 0
XXXX1586 1
XXXX1587 1
XXXX1588 1
XXXX1589 0
XXXX1590 0
XXXX1591 0
XXXX1592 1
XXXX1593 0
XXXX1594 1
XXXX1595 1
XXXX1596 1
XXXX1597 1
XXXX1598 0
XXXX1599 0
XXXX1600 1
XXXX1601 1
XXXX1602 1
XXXX1603 1
XXXX1604 1
XXXX1605 1
XXXX1606 1
XXXX1607 1
XXXX1608 1
XXXX1609 1
XXXX1610 0
XXXX1611 0
XXXX1612 1
XXXX1613 0
XXXX1614 1
XXXX1615 0
XXXX1616 0
XXXX1617 1
XXXX1618 1
XXXX1619 1
XXXX1620 1
XXXX1621 1
XXXX1622 0
XXXX1623 1
XXXX1624 0
XXXX1625 1
XXXX1626 1
XXXX1627 0
XXXX1628 1
XXXX1629 1
XXXX1630 0
XXXX1631 0
XXXX1632 0
XXXX1633 1
XXXX1634 1
XXXX1635 1
XXXX1636 1
XXXX1637 1
XXXX1638 1
XXXX1639 0
XXXX1640 0
XXXX1641 1
XXXX1642 1
XXXX1643 1
XXXX1644 1
XXXX1645 1
XXXX1646 1
XXXX1647 1
XXXX1648 0
XXXX1649 0
XXXX1650 0
XXXX1651 0
XXXX1652 0
XXXX1653 0
XXXX1654 1
XXXX1655 1
XXXX1656 1
XXXX1657 1
XXXX1658 0
XXXX1659 1
XXXX1660 1
XXXX1661 0
XXXX1662 1
XXXX1663 1
XXXX1664 1
XXXX1665 1
XXXX1666 1
XXXX1667 1
XXXX1668 0
XXXX1669 0
XXXX1670 0
XXXX1671 0
XXXX1672 0
XXXX1673 1
XXXX1674 0
XXXX1675 1
XXXX1676 1
XXXX1677 0
XXXX1678 0
XXXX1679 1
XXXX1680 0
XXXX1681 1
XXXX1682 0
XXXX1683 0
XXXX1684 1
XXXX1685 0
XXXX1686 0
XXXX1687 1
XXXX1688 1
XXXX1689 1
XXXX1690 1
XXXX1691 1
XXXX1692 0
XXXX1693 0
XXXX1694 1
XXXX1695 0
XXXX1696 0
XXXX1697 1
XXXX1698 1
XXXX1699 0
XXXX1700 0
XXXX1701 1
XXXX1702 0
XXXX1703 1
XXXX1704 1
XXXX1705 1
XXXX1706 0
XXXX1707 1
XXXX1708 0
XXXX1709 0
XXXX1710 1
XXXX1711 0
XXXX1712 0
XXXX1713 0
XXXX1714 1
XXXX1715 1
XXXX1716 1
XXXX1717 0
XXXX1718 1
XXXX1719 0
XXXX1720 1
XXXX1721 0
XXXX1722 0
XXXX1723 0
XXXX1724 0
XXXX1725 0
XXXX1726 0
XXXX1727 1
XXXX1728 1
XXXX1729 0
XXXX1730 1
XXXX1731 0
XXXX1732 0
XXXX1733 0
XXXX1734 1
XXXX1735 1
XXXX1736 1
XXXX1737 1
XXXX1738 1
XXXX1739 0
XXXX1740 0
XXXX1741 1
XXXX1742 0
XXXX1743 1
XXXX1744 0
XXXX1745 1
XXXX1746 1
XXXX1747 1
XXXX1748 1
XXXX1749 1
XXXX1750 0
XXXX1751 1
XXXX1752 0
XXXX1753 1
XXXX1754 1
XXXX1755 1
XXXX1756 1
XXXX1757 0
XXXX1758 1
XXXX1759 1
XXXX1760 1
XXXX1761 1
XXXX1762 1
XXXX1763 0
XXXX1764 1
XXXX1765 1
XXXX1766 1
XXXX1767 0
XXXX1768 0
XXXX1769 0
XXXX1770 0
XXXX1771 0
XXXX1772 0
XXXX1773 1
XXXX1774 1
XXXX1775 1
XXXX1776 1
XXXX1777 0
XXXX1778 1
XXXX1779 0
XXXX1780 1
XXXX1781 0
XXXX1782 0
XXXX1783 1
XXXX1784 0
XXXX1785 0
XXXX1786 1
XXXX1787 1
XXXX1788 1
XXXX1789 0
XXXX1790 0
XXXX1791 1
XXXX1792 1
XXXX1793 0
XXXX1794 0
XXXX1795 1
XXXX1796 1
XXXX1797 1
XXXX1798 0
XXXX1799 1
XXXX1800 1
XXXX1801 1
XXXX1802 0
XXXX1803 0
XXXX1804 1
XXXX1805 1
XXXX1806 1
XXXX1807 1
XXXX1808 1
XXXX1809 1
XXXX1810 0
XXXX1811 1
XXXX1812 1
XXXX1813 0
XXXX1814 0
XXXX1815 1
XXXX1816 1
XXXX1817 0
XXXX1818 1
XXXX1819 1
XXXX1820 0
XXXX1821 1
XXXX1822 1
XXXX1823 0
XXXX1824 0
XXXX1825 1
XXXX1826 1
XXXX1827 1
XXXX1828 1
XXXX1829 0
XXXX1830 0
XXXX1831 1
XXXX1832 0
XXXX1833 1
XXXX1834 0
XXXX1835 1
XXXX1836 0
XXXX1837 1
XXXX1838 1
XXXX1839 1
XXXX1840 1
XXXX1841 0
XXXX1842 0
XXXX1843 1
XXXX1844 1
XXXX1845 1
XXXX1846 1
XXXX1847 0
XXXX1848 0
XXXX1849 1
XXXX1850 1
XXXX1851 0
XXXX1852 0
XXXX1853 0
XXXX1854 1
XXXX1855 1
XXXX1856 0
XXXX1857 1
XXXX1858 0
XXXX1859 1
XXXX1860 0
XXXX1861 1
XXXX1862 0
XXXX1863 1
XXXX1864 1
XXXX1865 1
XXXX1866 1
XXXX1867 0
XXXX1868 0
XXXX1869 0
XXXX1870 1
XXXX1871 0
XXXX1872 0
XXXX1873 1
XXXX1874 1
XXXX1875 1
XXXX1876 1
XXXX1877 1
XXXX1878 1
XXXX1879 1
XXXX1880 1
XXXX1881 0
XXXX1882 0
XXXX1883 0
XXXX1884 0
XXXX1885 1
XXXX1886 1
XXXX1887 1
XXXX1888 0
XXXX1889 0
XXXX1890 0
XXXX1891 1
XXXX1892 0
XXXX1893 1
XXXX1894 1
XXXX1895 1
XXXX1896 1
XXXX1897 1
XXXX1898 1
XXXX1899 1
XXXX1900 0
XXXX1901 1
XXXX1902 1
XXXX1903 0
XXXX1904 1
XXXX1905 1
XXXX1906 1
XXXX1907 0
XXXX1908 0
XXXX1909 0
XXXX1910 0
XXXX1911 1
XXXX1912 1
XXXX1913 1
XXXX1914 1
XXXX1915 0
XXXX1916 0
XXXX1917 0
XXXX1918 1
XXXX1919 0
XXXX1920 0
XXXX1921 1
XXXX1922 0
XXXX1923 1
XXXX1924 1
XXXX1925 0
XXXX1926 1
XXXX1927 1
XXXX1928 1
XXXX1929 0
XXXX1930 1
XXXX1931 1
XXXX1932 1
XXXX1933 1
XXXX1934 1
XXXX1935 1
XXXX1936 0
XXXX1937 0
XXXX1938 0
XXXX1939 0
XXXX1940 0
XXXX1941 1
XXXX1942 1
XXXX1943 1
XXXX1944 0
XXXX1945 1
XXXX1946 0
XXXX1947 0
XXXX1948 0
XXXX1949 0
XXXX1950 1
XXXX1951 1
XXXX1952 1
XXXX1953 1
XXXX1954 1
XXXX1955 0
XXXX1956 0
XXXX1957 0
XXXX1958 1
XXXX1959 1
XXXX1960 0
XXXX1961 1
XXXX1962 1
XXXX1963 0
XXXX1964 0
XXXX1965 0
XXXX1966 0
XXXX1967 0
XXXX1968 0
XXXX1969 1
XXXX1970 0
XXXX1971 1
XXXX1972 1
XXXX1973 1
XXXX1974 0
XXXX1975 1
XXXX1976 1
XXXX1977 1
XXXX1978 1
XXXX1979 0
XXXX1980 0
XXXX1981 0
XXXX1982 0
XXXX1983 1
XXXX1984 1
XXXX1985 1
XXXX1986 1
XXXX1987 0
XXXX1988 0
XXXX1989 0
XXXX1990 1
XXXX1991 1
XXXX1992 0
XXXX1993 1
XXXX1994 1
XXXX1995 1
XXXX1996 1
XXXX1997 1
XXXX1998 1
XXXX1999 0
XXXX2000 1
XXXX2001 0
XXXX2002 1
XXXX2003 1
XXXX2004 0
XXXX2005 0
XXXX2006 0
XXXX2007 1
XXXX2008 1
XXXX2009 1
XXXX2010 1
XXXX2011 1
XXXX2012 1
XXXX2013 0
XXXX2014 1
XXXX2015 1
XXXX2016 1
XXXX2017 0
XXXX2018 0
XXXX2019 0
XXXX2020 1
XXXX2021 1
XXXX2022 1
XXXX2023 0
XXXX2024 0
XXXX2025 0
XXXX2026 0
XXXX2027 0
XXXX2028 1
XXXX2029 0
XXXX2030 1
XXXX2031 0
XXXX2032 0
XXXX2033 1
XXXX2034 1
XXXX2035 1
XXXX2036 1
XXXX2037 1
XXXX2038 0
XXXX2039 1
XXXX2040 1
XXXX2041 1
XXXX2042 1
XXXX2043 1
XXXX2044 1
XXXX2045 1
XXXX2046 1
XXXX2047 1
XXXX2048 0
XXXX2049 0
XXXX2050 0
XXXX2051 1
XXXX2052 1
XXXX2053 0
XXXX2054 1
XXXX2055 1
XXXX2056 1
XXXX2057 0
XXXX2058 1
XXXX2059 1
XXXX2060 0
XXXX2061 0
XXXX2062 1
XXXX2063 1
XXXX2064 0
XXXX2065 0
XXXX2066 1
XXXX2067 1
XXXX2068 0
XXXX2069 1
XXXX2070 0
XXXX2071 0
XXXX2072 1
XXXX2073 0
XXXX2074 1
XXXX2075 0
XXXX2076 1
XXXX2077 0
XXXX2078 0
XXXX2079 1
XXXX2080 1
XXXX2081 1
XXXX2082 1
XXXX2083 1
XXXX2084 0
XXXX2085 0
XXXX2086 0
XXXX2087 0
XXXX2088 0
XXXX2089 1
XXXX2090 1
XXXX2091 0
XXXX2092 0
XXXX2093 0
XXXX2094 1
XXXX2095 1
XXXX2096 1
XXXX2097 1
XXXX2098 0
XXXX2099 0
XXXX2100 0
XXXX2101 1
XXXX2102 1
XXXX2103 1
XXXX2104 0
XXXX2105 0
XXXX2106 0
XXXX2107 1
XXXX2108 1
XXXX2109 1
XXXX2110 1
XXXX2111 1
XXXX2112 0
XXXX2113 1
XXXX2114 1
XXXX2115 1
XXXX2116 0
XXXX2117 1
XXXX2118 0
XXXX2119 0
XXXX2120 0
XXXX2121 0
XXXX2122 1
XXXX2123 1
XXXX2124 1
XXXX2125 1
XXXX2126 1
XXXX2127 1
XXXX2128 1
XXXX2129 1
XXXX2130 1
XXXX2131 0
XXXX2132 0
XXXX2133 1
XXXX2134 0
XXXX2135 1
XXXX2136 1
XXXX2137 1
XXXX2138 1
XXXX2139 1
XXXX2140 1
XXXX2141 1
XXXX2142 0
XXXX2143 0
XXXX2144 1
XXXX2145 0
XXXX2146 0
XXXX2147 1
XXXX2148 0
XXXX2149 1
XXXX2150 1
XXXX2151 1
XXXX2152 0
XXXX2153 1
XXXX2154 0
XXXX2155 1
XXXX2156 0
XXXX2157 0
XXXX2158 1
XXXX2159 0
XXXX2160 1
XXXX2161 1
XXXX2162 0
XXXX2163 0
XXXX2164 1
XXXX2165 0
XXXX2166 0
XXXX2167 0
XXXX2168 0
XXXX2169 1
XXXX2170 0
XXXX2171 0
XXXX2172 0
XXXX2173 1
XXXX2174 1
XXXX2175 1
XXXX2176 0
XXXX2177 0
XXXX2178 0
XXXX2179 0
XXXX2180 1
XXXX2181 1
XXXX2182 1
XXXX2183 1
XXXX2184 1
XXXX2185 1
XXXX2186 1
XXXX2187 1
XXXX2188 0
XXXX2189 0
XXXX2190 0
XXXX2191 1
XXXX2192 1
XXXX2193 0
XXXX2194 0
XXXX2195 0
XXXX2196 1
XXXX2197 0
XXXX2198 0
XXXX2199 1
XXXX2200 1
XXXX2201 0
XXXX2202 1
XXXX2203 0
XXXX2204 1
XXXX2205 0
XXXX2206 0
XXXX2207 1
XXXX2208 1
XXXX2209 1
XXXX2210 1
XXXX2211 1
XXXX2212 1
XXXX2213 1
XXXX2214 0
XXXX2215 1
XXXX2216 0
XXXX2217 1
XXXX2218 1
XXXX2219 0
XXXX2220 0
XXXX2221 0
XXXX2222 0
XXXX2223 0
XXXX2224 0
XXXX2225 1
XXXX2226 1
XXXX2227 1
XXXX2228 1
XXXX2229 0
XXXX2230 1
XXXX2231 1
XXXX2232 0
XXXX2233 1
XXXX2234 1
XXXX2235 1
XXXX2236 0
XXXX2237 1
XXXX2238 0
XXXX2239 0
XXXX2240 1
XXXX2241 1
XXXX2242 0
XXXX2243 1
XXXX2244 1
XXXX2245 0
XXXX2246 0
XXXX2247 1
XXXX2248 1
XXXX2249 0
XXXX2250 1
XXXX2251 0
XXXX2252 0
XXXX2253 1
XXXX2254 1
XXXX2255 0
XXXX2256 1
XXXX2257 1
XXXX2258 1
XXXX2259 1
XXXX2260 0
XXXX2261 1
XXXX2262 0
XXXX2263 0
XXXX2264 0
XXXX2265 1
XXXX2266 0
XXXX2267 1
XXXX2268 1
XXXX2269 0
XXXX2270 1
XXXX2271 1
XXXX2272 1
XXXX2273 1
XXXX2274 0
XXXX2275 0
XXXX2276 0
XXXX2277 1
XXXX2278 1
XXXX2279 1
XXXX2280 0
XXXX2281 0
XXXX2282 1
XXXX2283 1
XXXX2284 1
XXXX2285 1
XXXX2286 1
XXXX2287 0
XXXX2288 1
XXXX2289 1
XXXX2290 0
XXXX2291 1
XXXX2292 0
XXXX2293 1
XXXX2294 1
XXXX2295 0
XXXX2296 1
XXXX2297 0
XXXX2298 1
XXXX2299 1
XXXX2300 1
XXXX2301 0
XXXX2302 0
XXXX2303 0
XXXX2304 0
XXXX2305 1
XXXX2306 0
XXXX2307 1
XXXX2308 0
XXXX2309 0
XXXX2310 1
XXXX2311 1
XXXX2312 1
XXXX2313 1
XXXX2314 1
XXXX2315 0
XXXX2316 0
XXXX2317 1
XXXX2318 1
XXXX2319 1
XXXX2320 1
XXXX2321 0
XXXX2322 0
XXXX2323 0
XXXX2324 1
XXXX2325 1
XXXX2326 1
XXXX2327 1
XXXX2328 0
XXXX2329 0
XXXX2330 1
XXXX2331 0
XXXX2332 1
XXXX2333 0
XXXX2334 1
XXXX2335 0
XXXX2336 1
XXXX2337 1
XXXX2338 1
XXXX2339 1
XXXX2340 0
XXXX2341 0
XXXX2342 1
XXXX2343 1
XXXX2344 1
XXXX2345 1
XXXX2346 1
XXXX2347 1
XXXX2348 1
XXXX2349 1
XXXX2350 1
XXXX2351 0
XXXX2352 1
XXXX2353 1
XXXX2354 1
XXXX2355 0
XXXX2356 1
XXXX2357 0
XXXX2358 0
XXXX2359 1
XXXX2360 1
XXXX2361 1
XXXX2362 1
XXXX2363 1
XXXX2364 1
XXXX2365 1
XXXX2366 1
XXXX2367 0
XXXX2368 0
XXXX2369 1
XXXX2370 1
XXXX2371 1
XXXX2372 1
XXXX2373 0
XXXX2374 0
XXXX2375 1
XXXX2376 0
XXXX2377 0
XXXX2378 1
XXXX2379 1
XXXX2380 0
XXXX2381 1
XXXX2382 0
XXXX2383 0
XXXX2384 1
XXXX2385 1
XXXX2386 0
XXXX2387 1
XXXX2388 1
XXXX2389 1
XXXX2390 0
XXXX2391 0
XXXX2392 0
XXXX2393 1
XXXX2394 1
XXXX2395 1
XXXX2396 1
XXXX2397 0
XXXX2398 1
XXXX2399 0
XXXX2400 1
XXXX2401 0
XXXX2402 1
XXXX2403 0
XXXX2404 0
XXXX2405 1
XXXX2406 1
XXXX2407 1
XXXX2408 0
XXXX2409 1
XXXX2410 1
XXXX2411 0
XXXX2412 0
XXXX2413 0
XXXX2414 0
XXXX2415 1
XXXX2416 0
XXXX2417 1
XXXX2418 0
XXXX2419 1
XXXX2420 1
XXXX2421 1
XXXX2422 0
XXXX2423 0
XXXX2424 0
XXXX2425 1
XXXX2426 1
XXXX2427 1
XXXX2428 1
XXXX2429 1
XXXX2430 1
XXXX2431 1
XXXX2432 1
XXXX2433 0
XXXX2434 1
XXXX2435 1
XXXX2436 1
XXXX2437 1
XXXX2438 1
XXXX2439 1
XXXX2440 1
XXXX2441 0
XXXX2442 0
XXXX2443 1
XXXX2444 0
XXXX2445 1
XXXX2446 1
XXXX2447 0
XXXX2448 1
XXXX2449 0
XXXX2450 1
XXXX2451 1
XXXX2452 0
XXXX2453 1
XXXX2454 0
XXXX2455 1
XXXX2456 1
XXXX2457 1
XXXX2458 1
YYYYYYY0 1
YYYYYYY1 1
YYYYYYY2 1
YYYYYYY3 1
YYYYYYY4 1
YYYYYYY5 1
YYYYYYY6 1
YYYYYYY7 1
YYYYYYY8 1
YYYYYYY9 1
YYYYYY10 1
YYYYYY11 1
YYYYYY12 1
YYYYYY13 1
YYYYYY14 1
YYYYYY15 1
YYYYYY16 1
YYYYYY17 1
YYYYYY18 1
YYYYYY19 1
YYYYYY20 1
YYYYYY21 1
YYYYYY22 1
YYYYYY23 1
YYYYYY24 1
YYYYYY25 1
YYYYYY26 1
YYYYYY27 1
YYYYYY28 1
YYYYYY29 1
YYYYYY30 1
YYYYYY31 1
YYYYYY32 1
YYYYYY33 1
YYYYYY34 1
YYYYYY35 1
YYYYYY36 1
YYYYYY37 1
YYYYYY38 1
YYYYYY39 1
YYYYYY40 1
YYYYYY41 1
YYYYYY42 1
YYYYYY43 1
YYYYYY44 1
YYYYYY45 1
YYYYYY46 1
YYYYYY47 1
YYYYYY48 1
YYYYYY49 1
